peakDumbCharging = 11100; 
Machine = anon_enum(16); 
machineSpeed = [3700,3700,3700,3700,3700,3700,3700,3700,3700,3700,3700,3700,3700,3700,3700,3700]; 
machineLoad = [3700,3700,3700,3700,3700,3700,3700,3700,3700,3700,3700,3700,3700,3700,3700,3700]; 
Car = anon_enum(7); 
demandCar = [21040,5520,2240,34080,6480,1720,11880]; 
arrivalCar = [79,71,66,57,48,48,48]; 
departureCar = [86,77,68,68,52,50,53]; 
